p cnf 140 460
c t mc
-3 -1 0
-3 -2 0
1 2 3 0
-3 4 -5 0
3 -4 -5 0
-3 -4 5 0
3 4 5 0
6 -5 -7 0
-6 5 -7 0
6 5 7 0
-6 -5 7 0
8 5 0
8 -7 0
-5 7 -8 0
10 -8 0
10 -9 0
8 9 -10 0
-13 -4 0
-13 -12 0
4 12 13 0
-14 11 0
-14 13 0
-11 -13 14 0
-15 9 0
-15 2 0
-9 -2 15 0
14 15 -16 0
-14 -15 -16 0
14 -15 16 0
-14 15 16 0
-17 18 -19 0
17 -18 -19 0
-17 -18 19 0
17 18 19 0
2 -20 -21 0
-2 20 -21 0
2 20 21 0
-2 -20 21 0
19 21 -22 0
-19 -21 -22 0
19 -21 22 0
-19 21 22 0
-23 -16 0
-23 22 0
16 -22 23 0
10 -23 -24 0
-10 23 -24 0
10 23 24 0
-10 -23 24 0
-26 -23 0
-26 -23 0
23 26 0
-27 -25 0
-27 26 0
25 -26 27 0
-24 27 -28 0
24 -27 -28 0
-24 -27 28 0
24 27 28 0
30 -12 0
30 -29 0
12 29 -30 0
-31 -9 0
-31 30 0
9 -30 31 0
-32 -23 0
-32 -31 0
23 31 32 0
-33 1 0
-33 32 0
-1 -32 33 0
28 -33 -34 0
-28 33 -34 0
28 33 34 0
-28 -33 34 0
36 -35 0
36 -8 0
35 8 -36 0
37 -34 0
37 -36 0
34 36 -37 0
-39 -3 -40 0
39 3 -40 0
-39 3 40 0
39 -3 40 0
41 -38 0
41 -40 0
38 40 -41 0
42 3 0
42 -13 0
-3 13 -42 0
-43 42 0
-43 1 0
-42 -1 43 0
-44 43 0
-44 26 0
-43 -26 44 0
44 45 -46 0
-44 -45 -46 0
44 -45 46 0
-44 45 46 0
-47 -41 0
-47 46 0
41 -46 47 0
-48 37 0
-48 -47 0
-37 47 48 0
49 32 0
49 22 0
-32 -22 -49 0
-51 50 0
-51 4 0
-50 -4 51 0
-52 -51 0
-52 1 0
51 -1 52 0
20 12 -53 0
-20 -12 -53 0
20 -12 53 0
-20 12 53 0
-52 53 -54 0
52 -53 -54 0
-52 -53 54 0
52 53 54 0
-55 -54 0
-55 -31 0
54 31 55 0
-56 49 0
-56 55 0
-49 -55 56 0
57 48 0
57 56 0
-48 -56 -57 0
58 14 0
58 9 0
-14 -9 -58 0
-59 11 0
-59 50 0
-11 -50 59 0
-60 -35 0
-60 59 0
35 -59 60 0
58 60 -61 0
-58 -60 -61 0
58 -60 61 0
-58 60 61 0
62 -9 0
62 38 0
9 -38 -62 0
-63 -62 0
-63 -38 0
62 38 63 0
64 -61 0
64 -63 0
61 63 -64 0
-65 -11 0
-65 -3 0
11 3 65 0
-66 65 0
-66 39 0
-65 -39 66 0
67 -64 0
67 -66 0
64 66 -67 0
69 68 0
69 53 0
-68 -53 -69 0
70 69 0
70 -19 0
-69 19 -70 0
-71 -67 0
-71 -70 0
67 70 71 0
12 -31 -72 0
-12 31 -72 0
12 31 72 0
-12 -31 72 0
73 72 0
73 15 0
-72 -15 -73 0
-74 -18 0
-74 -62 0
18 62 74 0
75 74 0
75 -68 0
-74 68 -75 0
-76 73 0
-76 -75 0
-73 75 76 0
78 -77 0
78 21 0
77 -21 -78 0
-79 78 0
-79 -50 0
-78 50 79 0
-76 79 -80 0
76 -79 -80 0
-76 -79 80 0
76 79 80 0
81 -13 0
81 -35 0
13 35 -81 0
82 81 0
82 39 0
-81 -39 -82 0
83 -82 0
83 35 0
82 -35 -83 0
7 -72 -84 0
-7 72 -84 0
7 72 84 0
-7 -72 84 0
-83 -84 -85 0
83 84 -85 0
-83 84 85 0
83 -84 85 0
-86 -80 0
-86 -85 0
80 85 86 0
-87 -14 0
-87 15 0
14 -15 87 0
42 -53 -88 0
-42 53 -88 0
42 53 88 0
-42 -53 88 0
89 22 0
89 -88 0
-22 88 -89 0
-90 87 0
-90 89 0
-87 -89 90 0
-88 -81 -91 0
88 81 -91 0
-88 81 91 0
88 -81 91 0
6 -29 -92 0
-6 29 -92 0
6 29 92 0
-6 -29 92 0
-93 59 0
-93 92 0
-59 -92 93 0
94 -91 0
94 93 0
91 -93 -94 0
-95 90 0
-95 94 0
-90 -94 95 0
-96 86 0
-96 95 0
-86 -95 96 0
71 -96 -97 0
-71 96 -97 0
71 96 97 0
-71 -96 97 0
-98 39 0
-98 -19 0
-39 19 98 0
99 -98 0
99 14 0
98 -14 -99 0
100 -31 0
100 -17 0
31 17 -100 0
-100 7 -101 0
100 -7 -101 0
-100 -7 101 0
100 7 101 0
102 -88 0
102 11 0
88 -11 -102 0
-103 -101 0
-103 102 0
101 -102 103 0
104 99 0
104 -103 0
-99 103 -104 0
-106 -21 0
-106 -1 0
21 1 106 0
-107 105 0
-107 -106 0
-105 106 107 0
108 -92 0
108 -107 0
92 107 -108 0
104 -108 -109 0
-104 108 -109 0
104 108 109 0
-104 -108 109 0
-110 19 0
-110 17 0
-19 -17 110 0
-110 -59 -111 0
110 59 -111 0
-110 59 111 0
110 -59 111 0
-58 50 -112 0
58 -50 -112 0
-58 -50 112 0
58 50 112 0
-113 111 0
-113 -112 0
-111 112 113 0
-114 -43 0
-114 -22 0
43 22 114 0
72 114 -115 0
-72 -114 -115 0
72 -114 115 0
-72 114 115 0
-116 82 0
-116 -35 0
-82 35 116 0
117 -116 0
117 15 0
116 -15 -117 0
-118 -20 0
-118 -117 0
20 117 118 0
119 -4 0
119 -102 0
4 102 -119 0
-118 -119 -120 0
118 119 -120 0
-118 119 120 0
118 -119 120 0
-121 115 0
-121 -120 0
-115 120 121 0
-122 113 0
-122 -121 0
-113 121 122 0
-109 122 -123 0
109 -122 -123 0
-109 -122 123 0
109 122 123 0
-97 -123 -124 0
97 123 -124 0
-97 123 124 0
97 -123 124 0
-125 -2 0
-125 -88 0
2 88 125 0
-19 -125 -126 0
19 125 -126 0
-19 125 126 0
19 -125 126 0
-77 126 -127 0
77 -126 -127 0
-77 -126 127 0
77 126 127 0
-32 31 -128 0
32 -31 -128 0
-32 -31 128 0
32 31 128 0
-127 -128 -129 0
127 128 -129 0
-127 128 129 0
127 -128 129 0
18 13 -130 0
-18 -13 -130 0
18 -13 130 0
-18 13 130 0
131 9 0
131 -130 0
-9 130 -131 0
-132 -129 0
-132 131 0
129 -131 132 0
133 78 0
133 92 0
-78 -92 -133 0
134 3 0
134 106 0
-3 -106 -134 0
-135 18 0
-135 -116 0
-18 116 135 0
-136 134 0
-136 -135 0
-134 135 136 0
-137 -133 0
-137 -136 0
133 136 137 0
-132 137 -138 0
132 -137 -138 0
-132 -137 138 0
132 137 138 0
-139 -124 0
-139 -138 0
124 138 139 0
-140 -57 0
-140 -139 0
57 139 140 0
-106 129 67 5 0
-67 30 -118 -101 0
-68 42 -14 0
-30 135 -8 7 -28 94 0
134 -44 117 -106 -87 137 0
42 134 -32 18 6 0
9 79 105 0
-65 40 6 124 0
133 -58 0
-30 127 -116 -40 -62 -15 -5 0
67 69 -129 -50 35 -9 63 51 0
-7 31 -17 98 -125 -128 -107 -87 122 49 0
29 -46 85 -109 69 50 86 -72 0
135 55 -110 -90 -109 17 0
-105 -3 28 40 0
-91 40 70 100 0
-84 -60 27 13 107 0
123 -32 0
-75 -20 81 -67 43 -68 -92 97 98 0
-35 70 45 -37 0
-95 139 96 -136 6 93 -18 0
64 -69 -78 137 -139 89 70 26 -90 0
-33 99 0
29 -16 -104 116 117 -11 -27 34 -51 0
49 119 0
-38 75 92 -95 -122 101 67 -34 -109 -104 0
9 89 136 38 -16 -129 63 0
7 -107 -103 0
-12 90 0
-125 113 -16 -48 -86 103 0
-127 18 -43 -102 17 -95 0
107 -59 2 -95 -138 -24 18 0
-105 61 -9 52 -63 0
-77 -89 -133 42 52 -55 46 111 0
75 -91 0
20 -10 -57 106 0
34 86 82 0
139 -133 -122 98 -64 0
-70 69 65 0
-4 47 0
-12 99 0
86 14 -109 76 31 25 -114 83 0
33 -108 -58 -96 -132 -130 -20 0
59 37 -10 39 -40 -62 0
48 -36 -66 -101 -56 -139 -83 39 0
119 97 102 0
-44 -102 -64 -72 20 -73 -81 103 0
-7 -3 96 -56 81 9 -106 0
101 140 -80 12 -108 51 -132 -121 111 61 0
-68 -83 71 137 35 52 106 -6 0
-21 7 -110 114 -12 0
4 -13 -6 -34 -45 81 0
-44 -27 -135 -1 -58 132 -72 0
-3 -79 0
-53 72 -91 107 -118 0
90 85 135 0
-76 -80 -26 0
-40 -25 -110 120 0
73 30 -37 -117 -5 0
73 -20 -65 -83 0
49 -4 50 -33 -68 -98 -103 -51 0
110 5 -21 -138 0
115 60 77 -35 -80 -93 7 0
140 0
